c Sudoku solution
p cnf 729 0
248 0
265 0
284 0
299 0
312 0
356 0
373 0
391 0
439 0
552 0
272 0
561 0
583 0
598 0
643 0
735 0
836 0
864 0
878 0
911 0
923 0
413 0
969 0
367 0
976 0
992 0
934 0
958 0
632 0
338 0
188 0
196 0
177 0
385 0
537 0
482 0
987 0
895 0
793 0
774 0
853 0
945 0
251 0
163 0
142 0
131 0
233 0
762 0
746 0
822 0
841 0
757 0
781 0
889 0
817 0
216 0
227 0
526 0
447 0
686 0
697 0
494 0
455 0
471 0
428 0
621 0
466 0
668 0
718 0
729 0
119 0
125 0
324 0
154 0
349 0
544 0
659 0
515 0
614 0
579 0
675 0
